; benchmark generated from python API
(set-info :status unknown)
(declare-datatypes ((RealState 0)) (((RMk1 (rval1 Real)) (RMk2 (rval2 Real)))))
 (assert
 (forall ((|v17:0| Real) )(forall ((|v16:1| Real) )(forall ((|v15:2| Real) )(forall ((|v14:3| Real) )(forall ((|v13:4| Real) )(forall ((|v12:5| Real) )(exists ((|v11:6_st| RealState) (val!7830 Real) )(exists ((|v10:7_st| RealState) (val!7831 Real) )(exists ((|v9:8_st| RealState) (val!7832 Real) )(exists ((|v8:9_st| RealState) (val!7833 Real) )(exists ((|v7:10_st| RealState) (val!7834 Real) )(exists ((|v6:11_st| RealState) (val!7835 Real) )(forall ((|v5:12| Real) )(forall ((|v4:13| Real) )(forall ((|v3:14| Real) )(forall ((|v2:15| Real) )(forall ((|v1:16| Real) )(forall ((|v0:17| Real) )(let ((?x580 (- 2.0)))
 (let ((?x2533 (* ?x580 |v1:16|)))
 (let ((?x689 (* 2.0 |v4:13|)))
 (let ((?x55 (+ (+ (+ (* (- 4.0) (rval2 |v11:6_st|)) (* 10.0 (rval2 |v10:7_st|))) ?x689) ?x2533)))
 (let ((?x2183 (- 6.0)))
 (let ((?x1827 (- 9.0)))
 (let ((?x2452 (* ?x1827 |v3:14|)))
 (let ((?x1623 (+ (+ (+ (* (- 20.0) |v16:1|) (* 18.0 |v4:13|)) (* 13.0 |v1:16|)) ?x2452)))
 (let ((?x1806 (- 17.0)))
 (let ((?x1549 (* ?x1806 |v15:2|)))
 (let ((?x1186 (* 11.0 |v3:14|)))
 (let ((?x202 (+ (+ (+ (* 18.0 (rval2 |v6:11_st|)) (* 6.0 (rval2 |v6:11_st|))) ?x1186) ?x1549)))
 (let ((?x697 (* 14.0 |v0:17|)))
 (let (($x1000 (<= (+ (+ (+ ?x689 (* ?x2183 |v2:15|)) (* (- 13.0) (rval2 |v7:10_st|))) ?x697) ?x2183)))
 (let (($x1270 (or (or $x1000 (<= ?x202 1.0)) (or (<= ?x1623 ?x2183) (<= ?x55 5.0)))))
 (let ((?x836 (* 9.0 |v3:14|)))
 (let ((?x657 (+ (+ (+ (* 18.0 |v5:12|) (* 8.0 (rval2 |v9:8_st|))) (* (- 1.0) |v14:3|)) ?x836)))
 (let ((?x808 (rval2 |v6:11_st|)))
 (let ((?x1769 (* 6.0 ?x808)))
 (let ((?x3274 (+ (+ (* (- 13.0) (rval2 |v11:6_st|)) (* (- 1.0) |v0:17|)) (* (- 13.0) |v17:0|))))
 (let ((?x621 (rval2 |v9:8_st|)))
 (let ((?x3264 (* 8.0 ?x621)))
 (let ((?x2447 (+ (+ (+ (* (- 10.0) |v3:14|) (* 3.0 |v12:5|)) (* (- 16.0) |v1:16|)) ?x3264)))
 (let (($x1446 (or (and (<= ?x2447 15.0) (<= (+ ?x3274 ?x1769) 18.0)) (<= ?x657 10.0))))
 (let ((?x2195 (rval2 |v8:9_st|)))
 (let ((?x1808 (* 11.0 ?x2195)))
 (let ((?x2074 (+ (+ (+ (* 7.0 |v2:15|) (* (- 18.0) |v12:5|)) (* 7.0 |v12:5|)) ?x1808)))
 (let ((?x1868 (+ (+ (+ (* 2.0 |v2:15|) (* (- 20.0) |v0:17|)) (* (- 19.0) ?x621)) (* (- 13.0) (rval2 |v10:7_st|)))))
 (let ((?x339 (+ (+ (+ (* (- 10.0) (rval2 |v11:6_st|)) (* 9.0 |v13:4|)) ?x1549) (* (- 4.0) |v17:0|))))
 (let ((?x1824 (* ?x2183 |v1:16|)))
 (let ((?x2825 (+ (+ (* ?x580 (rval2 |v7:10_st|)) (* (- 5.0) |v3:14|)) (* (- 1.0) |v12:5|))))
 (let ((?x65 (- 5.0)))
 (let ((?x1169 (+ (+ (+ (* 5.0 ?x621) (* (- 14.0) |v4:13|)) (* 7.0 ?x621)) (* 11.0 ?x621))))
 (let (($x3151 (or (and (<= ?x1169 ?x65) (<= (+ ?x2825 ?x1824) 18.0)) (or (<= ?x339 1.0) (<= ?x1868 18.0)))))
 (let ((?x850 (* 17.0 |v15:2|)))
 (let ((?x2434 (+ (+ (+ (* (- 8.0) |v3:14|) (* 0.0 |v14:3|)) (* 8.0 |v0:17|)) ?x850)))
 (let ((?x1334 (- 11.0)))
 (let ((?x3324 (* 9.0 ?x808)))
 (let ((?x1580 (+ (+ (* 8.0 |v13:4|) (* 4.0 (rval2 |v7:10_st|))) (* ?x1806 (rval2 |v7:10_st|)))))
 (let ((?x433 (- 3.0)))
 (let ((?x1884 (* ?x1334 |v17:0|)))
 (let ((?x1825 (* 5.0 |v15:2|)))
 (let ((?x153 (+ (+ (+ (* 8.0 (rval2 |v11:6_st|)) (* (- 18.0) (rval2 |v10:7_st|))) ?x1825) ?x1884)))
 (let ((?x333 (* ?x580 |v5:12|)))
 (let (($x2213 (<= (+ (+ (+ (* 8.0 ?x808) (* (- 10.0) |v0:17|)) (* ?x1806 |v4:13|)) ?x333) 6.0)))
 (let (($x768 (or (or $x2213 (<= ?x153 ?x433)) (or (<= (+ ?x1580 ?x3324) ?x1334) (<= ?x2434 7.0)))))
 (let ((?x1732 (- 4.0)))
 (let ((?x2957 (* 8.0 |v13:4|)))
 (let ((?x1304 (+ (+ (+ (* ?x65 ?x808) (* 3.0 |v0:17|)) (* (- 8.0) (rval2 |v11:6_st|))) ?x2957)))
 (let ((?x238 (* 11.0 |v0:17|)))
 (let ((?x3290 (rval2 |v7:10_st|)))
 (let ((?x772 (- 13.0)))
 (let ((?x236 (* ?x772 ?x3290)))
 (let (($x1942 (<= (+ (+ (+ (* (- 14.0) ?x621) (* 10.0 ?x808)) ?x236) ?x238) 2.0)))
 (let ((?x2777 (- 8.0)))
 (let ((?x1554 (* 18.0 ?x2195)))
 (let ((?x423 (+ (+ (+ (* ?x772 |v12:5|) (* 12.0 ?x808)) (* 19.0 (rval2 |v11:6_st|))) ?x1554)))
 (let ((?x3013 (- 7.0)))
 (let ((?x1179 (* ?x3013 |v0:17|)))
 (let ((?x56 (+ (+ (+ (* 13.0 ?x621) (* ?x1827 (rval2 |v11:6_st|))) (* ?x2183 |v3:14|)) ?x1179)))
 (let (($x2741 (and (and (<= ?x56 5.0) (<= ?x423 ?x2777)) (and $x1942 (<= ?x1304 ?x1732)))))
 (let ((?x1702 (+ (+ (+ (* (- 15.0) ?x3290) (* 10.0 (rval2 |v10:7_st|))) (* 18.0 ?x621)) (* 17.0 ?x3290))))
 (let (($x3016 (<= (+ (+ (+ ?x836 (* 2.0 |v0:17|)) (* 17.0 |v2:15|)) (* 20.0 |v2:15|)) 11.0)))
 (let ((?x130 (- 19.0)))
 (let ((?x1792 (* 12.0 |v4:13|)))
 (let (($x560 (<= (+ (+ (+ (* 15.0 |v5:12|) (* ?x2183 ?x2195)) (* 6.0 |v4:13|)) ?x1792) ?x130)))
 (let ((?x422 (- 16.0)))
 (let ((?x2704 (* ?x422 |v1:16|)))
 (let (($x1214 (<= (+ (+ (+ (* (- 14.0) |v12:5|) (* 13.0 |v15:2|)) |v5:12|) ?x2704) ?x2183)))
 (let ((?x1568 (- 20.0)))
 (let ((?x1927 (* ?x3013 |v5:12|)))
 (let (($x518 (<= (+ (+ (+ (* 9.0 |v16:1|) (* 2.0 ?x621)) (* 19.0 |v15:2|)) ?x1927) ?x1568)))
 (let ((?x2348 (+ (+ (+ (* 0.0 |v3:14|) (* (- 12.0) |v0:17|)) (* 4.0 |v15:2|)) (* ?x1827 |v17:0|))))
 (let (($x2428 (<= (+ (+ (+ (* 6.0 ?x621) (* 6.0 ?x621)) ?x621) (* 12.0 |v0:17|)) 8.0)))
 (let ((?x1609 (+ (+ (+ (* 13.0 ?x621) (* ?x1732 |v4:13|)) (* ?x2777 |v13:4|)) (* 19.0 ?x621))))
 (let (($x437 (or (and (or (<= ?x1609 12.0) $x2428) (and (<= ?x2348 2.0) $x518)) (or (or $x1214 $x560) (and $x3016 (<= ?x1702 3.0))))))
 (let (($x264 (or (and $x437 (and $x2741 $x768)) (or (or $x3151 (<= ?x2074 15.0)) (and $x1446 $x1270)))))
 (let ((?x3137 (+ (+ (+ (* 4.0 ?x808) (* 15.0 |v14:3|)) (* 13.0 |v14:3|)) (* ?x1732 |v16:1|))))
 (let ((?x912 (- 15.0)))
 (let (($x1093 (<= (+ (+ (+ ?x1769 (* ?x433 |v17:0|)) (* ?x580 |v2:15|)) (* ?x65 |v15:2|)) ?x912)))
 (let ((?x2850 (- 10.0)))
 (let ((?x212 (- 12.0)))
 (let ((?x992 (* ?x212 |v1:16|)))
 (let ((?x250 (+ (+ (+ (* (- 14.0) |v1:16|) (* ?x422 |v5:12|)) (* (- 18.0) |v15:2|)) ?x992)))
 (let (($x1590 (<= (+ (+ (+ ?x2533 (* ?x1568 ?x808)) (* 15.0 |v3:14|)) (* (- 18.0) |v0:17|)) ?x1827)))
 (let ((?x3241 (+ (+ (+ (* 4.0 |v13:4|) (* ?x2850 |v5:12|)) (* 13.0 |v15:2|)) (* ?x912 (rval2 |v10:7_st|)))))
 (let ((?x766 (+ (+ (+ (* ?x212 |v16:1|) (* ?x2777 ?x808)) (* 5.0 (rval2 |v11:6_st|))) (* 0.0 (rval2 |v11:6_st|)))))
 (let ((?x2682 (- 1.0)))
 (let ((?x2992 (+ (+ (+ (* 15.0 |v12:5|) (* ?x1334 |v3:14|)) (* ?x65 ?x2195)) (* ?x422 |v14:3|))))
 (let ((?x3121 (* 18.0 |v13:4|)))
 (let (($x2038 (<= (+ (+ (+ (* 15.0 |v2:15|) (* 15.0 ?x3290)) (* 10.0 ?x808)) ?x3121) 12.0)))
 (let (($x2724 (and (or (and $x2038 (<= ?x2992 ?x2682)) (and (<= ?x766 ?x2183) (<= ?x3241 ?x772))) (or $x1590 (or (<= ?x250 ?x2850) $x1093)))))
 (let ((?x2141 (+ (+ (+ (* ?x65 |v0:17|) (* (- 18.0) (rval2 |v10:7_st|))) (* ?x1827 |v14:3|)) (* 7.0 |v15:2|))))
 (let (($x1138 (<= (+ (+ (+ (* 15.0 |v2:15|) (* ?x772 ?x2195)) (* ?x2682 |v0:17|)) ?x1884) ?x2777)))
 (let ((?x747 (* 5.0 |v4:13|)))
 (let ((?x2551 (+ (+ (+ (* 10.0 (rval2 |v10:7_st|)) (* ?x1568 ?x2195)) (* (- 14.0) |v2:15|)) ?x747)))
 (let ((?x1256 (* 20.0 |v14:3|)))
 (let ((?x1610 (+ (+ (* 13.0 |v16:1|) (* ?x1334 (rval2 |v11:6_st|))) (* 4.0 (rval2 |v11:6_st|)))))
 (let ((?x3497 (* 15.0 |v5:12|)))
 (let (($x1858 (<= (+ (+ (+ (* 18.0 |v1:16|) (* ?x3013 |v14:3|)) (* 11.0 ?x808)) ?x3497) 0.0)))
 (let ((?x2819 (rval2 |v11:6_st|)))
 (let ((?x607 (* 11.0 ?x2819)))
 (let (($x3307 (<= (+ (+ (+ (* 5.0 ?x2195) (* ?x912 |v1:16|)) (* 7.0 |v16:1|)) ?x607) ?x2850)))
 (let ((?x2888 (* ?x2682 |v14:3|)))
 (let ((?x1706 (+ (+ (+ (* 11.0 (rval2 |v10:7_st|)) (* ?x1806 |v13:4|)) (* 11.0 |v1:16|)) ?x2888)))
 (let (($x2102 (and (or (or (<= ?x1706 ?x1568) $x3307) (or $x1858 (<= (+ ?x1610 ?x1256) 12.0))) (or (or (<= ?x2551 3.0) $x1138) (<= ?x2141 ?x2682)))))
 (let (($x785 (not (= |v6:11_st| (RMk1 val!7835)))))
 (let (($x1017 (not (= |v7:10_st| (RMk1 val!7834)))))
 (let (($x2912 (not (= |v8:9_st| (RMk1 val!7833)))))
 (let (($x2702 (not (= |v9:8_st| (RMk1 val!7832)))))
 (let (($x1978 (not (= |v10:7_st| (RMk1 val!7831)))))
 (let (($x891 (not (= |v11:6_st| (RMk1 val!7830)))))
 (and $x891 $x1978 $x2702 $x2912 $x1017 $x785 (and (or (and $x2102 $x2724) (<= ?x3137 3.0)) $x264)))))))))))))))))))))))))))))))))))))))))))))))))))))))))))))))))))))))))))))))))))))))))))))))))))))))))))))))))))
 )
 )
 )
 )
 )
 )
 )
 )
 )
 )
 )
 )
 )
 )
 )
 )
 )
 )
(check-sat)
